p cnf 430 1488
-191 93 0
-191 174 0
-191 6 0
-191 -45 0
-191 34 0
191 -93 -174 -6 45 -34 0
-192 73 0
-192 58 0
-192 -51 0
-192 59 0
-192 17 0
192 -73 -58 51 -59 -17 0
-193 185 0
-193 131 0
-193 -80 0
-193 -51 0
-193 11 0
193 -185 -131 80 51 -11 0
-194 150 0
-194 -46 0
-194 -36 0
-194 -122 0
-194 -4 0
194 -150 46 36 122 4 0
-195 79 0
-195 -94 0
-195 86 0
-195 78 0
-195 -113 0
195 -79 94 -86 -78 113 0
191 192 193 194 195 0
-196 42 0
-196 -149 0
-196 -157 0
-196 -88 0
-196 179 0
196 -42 149 157 88 -179 0
-197 -27 0
-197 159 0
-197 -99 0
-197 -42 0
-197 -144 0
197 27 -159 99 42 144 0
-198 -170 0
-198 108 0
-198 173 0
-198 -186 0
-198 -162 0
198 170 -108 -173 186 162 0
-199 116 0
-199 130 0
-199 126 0
-199 165 0
-199 -3 0
199 -116 -130 -126 -165 3 0
-200 95 0
-200 68 0
-200 -110 0
-200 -28 0
-200 -32 0
200 -95 -68 110 28 32 0
196 197 198 199 200 0
-201 75 0
-201 56 0
-201 38 0
-201 100 0
-201 24 0
201 -75 -56 -38 -100 -24 0
-202 154 0
-202 73 0
-202 29 0
-202 168 0
-202 -24 0
202 -154 -73 -29 -168 24 0
-203 -107 0
-203 -55 0
-203 161 0
-203 -92 0
-203 -149 0
203 107 55 -161 92 149 0
-204 60 0
-204 147 0
-204 -112 0
-204 -185 0
-204 183 0
204 -60 -147 112 185 -183 0
-205 -25 0
-205 -1 0
-205 131 0
-205 153 0
-205 -91 0
205 25 1 -131 -153 91 0
201 202 203 204 205 0
-206 -121 0
-206 156 0
-206 99 0
-206 -104 0
-206 13 0
206 121 -156 -99 104 -13 0
-207 -36 0
-207 186 0
-207 -155 0
-207 -6 0
-207 176 0
207 36 -186 155 6 -176 0
-208 140 0
-208 153 0
-208 -141 0
-208 54 0
-208 -99 0
208 -140 -153 141 -54 99 0
-209 43 0
-209 -61 0
-209 -113 0
-209 125 0
-209 -92 0
209 -43 61 113 -125 92 0
-210 -114 0
-210 -123 0
-210 -65 0
-210 181 0
-210 -1 0
210 114 123 65 -181 1 0
206 207 208 209 210 0
-211 -190 0
-211 94 0
-211 -147 0
-211 133 0
-211 100 0
211 190 -94 147 -133 -100 0
-212 -153 0
-212 112 0
-212 -80 0
-212 184 0
-212 -1 0
212 153 -112 80 -184 1 0
-213 -2 0
-213 -57 0
-213 -31 0
-213 -20 0
-213 173 0
213 2 57 31 20 -173 0
-214 108 0
-214 13 0
-214 35 0
-214 179 0
-214 122 0
214 -108 -13 -35 -179 -122 0
-215 -72 0
-215 130 0
-215 -69 0
-215 -20 0
-215 98 0
215 72 -130 69 20 -98 0
211 212 213 214 215 0
-216 -29 0
-216 19 0
-216 -87 0
-216 -179 0
-216 -75 0
216 29 -19 87 179 75 0
-217 -114 0
-217 -115 0
-217 -92 0
-217 -135 0
-217 162 0
217 114 115 92 135 -162 0
-218 84 0
-218 -86 0
-218 104 0
-218 -153 0
-218 131 0
218 -84 86 -104 153 -131 0
-219 153 0
-219 69 0
-219 57 0
-219 137 0
-219 -142 0
219 -153 -69 -57 -137 142 0
-220 144 0
-220 22 0
-220 -149 0
-220 -51 0
-220 3 0
220 -144 -22 149 51 -3 0
216 217 218 219 220 0
-221 -71 0
-221 79 0
-221 131 0
-221 -143 0
-221 -177 0
221 71 -79 -131 143 177 0
-222 -6 0
-222 -34 0
-222 150 0
-222 25 0
-222 39 0
222 6 34 -150 -25 -39 0
-223 132 0
-223 87 0
-223 162 0
-223 -73 0
-223 135 0
223 -132 -87 -162 73 -135 0
-224 -15 0
-224 -55 0
-224 -64 0
-224 173 0
-224 -149 0
224 15 55 64 -173 149 0
-225 -80 0
-225 -90 0
-225 -27 0
-225 7 0
-225 133 0
225 80 90 27 -7 -133 0
221 222 223 224 225 0
-226 -127 0
-226 72 0
-226 125 0
-226 -136 0
-226 95 0
226 127 -72 -125 136 -95 0
-227 -148 0
-227 -116 0
-227 -27 0
-227 -124 0
-227 -149 0
227 148 116 27 124 149 0
-228 -55 0
-228 131 0
-228 -187 0
-228 49 0
-228 156 0
228 55 -131 187 -49 -156 0
-229 -166 0
-229 54 0
-229 -122 0
-229 -169 0
-229 -179 0
229 166 -54 122 169 179 0
-230 127 0
-230 122 0
-230 51 0
-230 -86 0
-230 -61 0
230 -127 -122 -51 86 61 0
226 227 228 229 230 0
-231 116 0
-231 -125 0
-231 113 0
-231 -152 0
-231 -94 0
231 -116 125 -113 152 94 0
-232 -16 0
-232 -43 0
-232 -14 0
-232 119 0
-232 33 0
232 16 43 14 -119 -33 0
-233 -168 0
-233 175 0
-233 -187 0
-233 -15 0
-233 29 0
233 168 -175 187 15 -29 0
-234 21 0
-234 -16 0
-234 148 0
-234 150 0
-234 185 0
234 -21 16 -148 -150 -185 0
-235 -50 0
-235 171 0
-235 159 0
-235 37 0
-235 39 0
235 50 -171 -159 -37 -39 0
231 232 233 234 235 0
-236 -93 0
-236 99 0
-236 -143 0
-236 -120 0
-236 48 0
236 93 -99 143 120 -48 0
-237 156 0
-237 29 0
-237 34 0
-237 15 0
-237 -40 0
237 -156 -29 -34 -15 40 0
-238 -120 0
-238 27 0
-238 37 0
-238 61 0
-238 34 0
238 120 -27 -37 -61 -34 0
-239 -21 0
-239 144 0
-239 35 0
-239 -34 0
-239 -20 0
239 21 -144 -35 34 20 0
-240 -105 0
-240 -158 0
-240 -14 0
-240 -21 0
-240 -70 0
240 105 158 14 21 70 0
236 237 238 239 240 0
-241 134 0
-241 101 0
-241 -176 0
-241 62 0
-241 131 0
241 -134 -101 176 -62 -131 0
-242 -76 0
-242 -116 0
-242 -44 0
-242 176 0
-242 117 0
242 76 116 44 -176 -117 0
-243 155 0
-243 28 0
-243 -71 0
-243 90 0
-243 -133 0
243 -155 -28 71 -90 133 0
-244 -171 0
-244 6 0
-244 -36 0
-244 190 0
-244 25 0
244 171 -6 36 -190 -25 0
-245 135 0
-245 -35 0
-245 -159 0
-245 -127 0
-245 175 0
245 -135 35 159 127 -175 0
241 242 243 244 245 0
-246 106 0
-246 -138 0
-246 9 0
-246 -113 0
-246 189 0
246 -106 138 -9 113 -189 0
-247 -189 0
-247 142 0
-247 99 0
-247 34 0
-247 187 0
247 189 -142 -99 -34 -187 0
-248 149 0
-248 13 0
-248 114 0
-248 175 0
-248 -116 0
248 -149 -13 -114 -175 116 0
-249 -144 0
-249 -153 0
-249 -31 0
-249 -53 0
-249 40 0
249 144 153 31 53 -40 0
-250 -16 0
-250 -28 0
-250 130 0
-250 -109 0
-250 -4 0
250 16 28 -130 109 4 0
246 247 248 249 250 0
-251 117 0
-251 -34 0
-251 -45 0
-251 17 0
-251 61 0
251 -117 34 45 -17 -61 0
-252 56 0
-252 -90 0
-252 -125 0
-252 -66 0
-252 32 0
252 -56 90 125 66 -32 0
-253 48 0
-253 123 0
-253 165 0
-253 16 0
-253 70 0
253 -48 -123 -165 -16 -70 0
-254 60 0
-254 -147 0
-254 1 0
-254 -128 0
-254 118 0
254 -60 147 -1 128 -118 0
-255 -144 0
-255 -128 0
-255 31 0
-255 -159 0
-255 132 0
255 144 128 -31 159 -132 0
251 252 253 254 255 0
-256 -162 0
-256 111 0
-256 -150 0
-256 -28 0
-256 101 0
256 162 -111 150 28 -101 0
-257 54 0
-257 -66 0
-257 128 0
-257 73 0
-257 -161 0
257 -54 66 -128 -73 161 0
-258 51 0
-258 47 0
-258 48 0
-258 60 0
-258 -165 0
258 -51 -47 -48 -60 165 0
-259 -152 0
-259 -60 0
-259 45 0
-259 1 0
-259 8 0
259 152 60 -45 -1 -8 0
-260 -186 0
-260 83 0
-260 -99 0
-260 75 0
-260 33 0
260 186 -83 99 -75 -33 0
256 257 258 259 260 0
-261 -159 0
-261 -134 0
-261 -77 0
-261 139 0
-261 88 0
261 159 134 77 -139 -88 0
-262 -35 0
-262 -161 0
-262 -104 0
-262 119 0
-262 14 0
262 35 161 104 -119 -14 0
-263 174 0
-263 156 0
-263 83 0
-263 -144 0
-263 -53 0
263 -174 -156 -83 144 53 0
-264 -143 0
-264 37 0
-264 158 0
-264 -3 0
-264 87 0
264 143 -37 -158 3 -87 0
-265 81 0
-265 139 0
-265 -168 0
-265 173 0
-265 -54 0
265 -81 -139 168 -173 54 0
261 262 263 264 265 0
-266 -68 0
-266 -64 0
-266 -181 0
-266 63 0
-266 77 0
266 68 64 181 -63 -77 0
-267 81 0
-267 63 0
-267 152 0
-267 -122 0
-267 -51 0
267 -81 -63 -152 122 51 0
-268 -137 0
-268 52 0
-268 -16 0
-268 33 0
-268 109 0
268 137 -52 16 -33 -109 0
-269 99 0
-269 35 0
-269 116 0
-269 -125 0
-269 73 0
269 -99 -35 -116 125 -73 0
-270 -89 0
-270 -166 0
-270 -37 0
-270 -93 0
-270 156 0
270 89 166 37 93 -156 0
266 267 268 269 270 0
-271 77 0
-271 -185 0
-271 29 0
-271 -146 0
-271 178 0
271 -77 185 -29 146 -178 0
-272 -64 0
-272 -187 0
-272 105 0
-272 190 0
-272 172 0
272 64 187 -105 -190 -172 0
-273 -85 0
-273 153 0
-273 -104 0
-273 103 0
-273 -77 0
273 85 -153 104 -103 77 0
-274 -35 0
-274 -115 0
-274 -1 0
-274 47 0
-274 -10 0
274 35 115 1 -47 10 0
-275 -67 0
-275 -13 0
-275 -2 0
-275 -3 0
-275 128 0
275 67 13 2 3 -128 0
271 272 273 274 275 0
-276 -27 0
-276 132 0
-276 -41 0
-276 -93 0
-276 -59 0
276 27 -132 41 93 59 0
-277 -171 0
-277 86 0
-277 117 0
-277 -172 0
-277 188 0
277 171 -86 -117 172 -188 0
-278 -62 0
-278 -65 0
-278 -5 0
-278 -33 0
-278 104 0
278 62 65 5 33 -104 0
-279 6 0
-279 -175 0
-279 163 0
-279 -127 0
-279 -155 0
279 -6 175 -163 127 155 0
-280 -114 0
-280 100 0
-280 -111 0
-280 15 0
-280 55 0
280 114 -100 111 -15 -55 0
276 277 278 279 280 0
-281 93 0
-281 -38 0
-281 66 0
-281 44 0
-281 -184 0
281 -93 38 -66 -44 184 0
-282 -186 0
-282 162 0
-282 -118 0
-282 141 0
-282 -102 0
282 186 -162 118 -141 102 0
-283 8 0
-283 -45 0
-283 -19 0
-283 84 0
-283 91 0
283 -8 45 19 -84 -91 0
-284 71 0
-284 -160 0
-284 -109 0
-284 -52 0
-284 59 0
284 -71 160 109 52 -59 0
-285 82 0
-285 -129 0
-285 -35 0
-285 80 0
-285 -59 0
285 -82 129 35 -80 59 0
281 282 283 284 285 0
-286 -150 0
-286 70 0
-286 188 0
-286 87 0
-286 -119 0
286 150 -70 -188 -87 119 0
-287 -174 0
-287 -60 0
-287 134 0
-287 30 0
-287 -1 0
287 174 60 -134 -30 1 0
-288 150 0
-288 -137 0
-288 108 0
-288 -28 0
-288 159 0
288 -150 137 -108 28 -159 0
-289 -9 0
-289 -149 0
-289 -25 0
-289 65 0
-289 129 0
289 9 149 25 -65 -129 0
-290 -87 0
-290 181 0
-290 -76 0
-290 8 0
-290 -155 0
290 87 -181 76 -8 155 0
286 287 288 289 290 0
-291 152 0
-291 -190 0
-291 -26 0
-291 -183 0
-291 -101 0
291 -152 190 26 183 101 0
-292 -5 0
-292 59 0
-292 -98 0
-292 -122 0
-292 -172 0
292 5 -59 98 122 172 0
-293 -6 0
-293 53 0
-293 40 0
-293 -88 0
-293 169 0
293 6 -53 -40 88 -169 0
-294 -44 0
-294 79 0
-294 148 0
-294 48 0
-294 -151 0
294 44 -79 -148 -48 151 0
-295 119 0
-295 -58 0
-295 -14 0
-295 186 0
-295 -12 0
295 -119 58 14 -186 12 0
291 292 293 294 295 0
-296 85 0
-296 86 0
-296 75 0
-296 116 0
-296 -43 0
296 -85 -86 -75 -116 43 0
-297 121 0
-297 -42 0
-297 144 0
-297 170 0
-297 158 0
297 -121 42 -144 -170 -158 0
-298 -24 0
-298 96 0
-298 39 0
-298 14 0
-298 -171 0
298 24 -96 -39 -14 171 0
-299 -155 0
-299 102 0
-299 -22 0
-299 -131 0
-299 -177 0
299 155 -102 22 131 177 0
-300 -152 0
-300 68 0
-300 29 0
-300 -167 0
-300 -137 0
300 152 -68 -29 167 137 0
296 297 298 299 300 0
-301 -69 0
-301 -6 0
-301 -10 0
-301 159 0
-301 -75 0
301 69 6 10 -159 75 0
-302 -123 0
-302 -78 0
-302 -152 0
-302 30 0
-302 -111 0
302 123 78 152 -30 111 0
-303 -161 0
-303 -13 0
-303 -127 0
-303 91 0
-303 -140 0
303 161 13 127 -91 140 0
-304 -123 0
-304 4 0
-304 -144 0
-304 50 0
-304 -62 0
304 123 -4 144 -50 62 0
-305 72 0
-305 107 0
-305 76 0
-305 155 0
-305 181 0
305 -72 -107 -76 -155 -181 0
301 302 303 304 305 0
-306 190 0
-306 171 0
-306 174 0
-306 -31 0
-306 -99 0
306 -190 -171 -174 31 99 0
-307 22 0
-307 44 0
-307 16 0
-307 152 0
-307 94 0
307 -22 -44 -16 -152 -94 0
-308 -20 0
-308 25 0
-308 165 0
-308 -49 0
-308 -104 0
308 20 -25 -165 49 104 0
-309 1 0
-309 -155 0
-309 185 0
-309 -28 0
-309 -149 0
309 -1 155 -185 28 149 0
-310 44 0
-310 -103 0
-310 -13 0
-310 62 0
-310 -125 0
310 -44 103 13 -62 125 0
306 307 308 309 310 0
-311 75 0
-311 19 0
-311 139 0
-311 -7 0
-311 -146 0
311 -75 -19 -139 7 146 0
-312 94 0
-312 183 0
-312 126 0
-312 -26 0
-312 -151 0
312 -94 -183 -126 26 151 0
-313 -72 0
-313 158 0
-313 -182 0
-313 83 0
-313 189 0
313 72 -158 182 -83 -189 0
-314 -42 0
-314 -141 0
-314 165 0
-314 177 0
-314 -57 0
314 42 141 -165 -177 57 0
-315 -93 0
-315 83 0
-315 -27 0
-315 157 0
-315 -76 0
315 93 -83 27 -157 76 0
311 312 313 314 315 0
-316 122 0
-316 -118 0
-316 -170 0
-316 103 0
-316 -74 0
316 -122 118 170 -103 74 0
-317 109 0
-317 -67 0
-317 41 0
-317 182 0
-317 185 0
317 -109 67 -41 -182 -185 0
-318 118 0
-318 -43 0
-318 83 0
-318 -91 0
-318 -87 0
318 -118 43 -83 91 87 0
-319 112 0
-319 -95 0
-319 -53 0
-319 33 0
-319 103 0
319 -112 95 53 -33 -103 0
-320 84 0
-320 -51 0
-320 -112 0
-320 -6 0
-320 -91 0
320 -84 51 112 6 91 0
316 317 318 319 320 0
-321 -178 0
-321 -86 0
-321 36 0
-321 180 0
-321 -145 0
321 178 86 -36 -180 145 0
-322 -87 0
-322 98 0
-322 -2 0
-322 -139 0
-322 24 0
322 87 -98 2 139 -24 0
-323 -59 0
-323 9 0
-323 167 0
-323 -144 0
-323 -147 0
323 59 -9 -167 144 147 0
-324 185 0
-324 18 0
-324 55 0
-324 127 0
-324 125 0
324 -185 -18 -55 -127 -125 0
-325 -163 0
-325 138 0
-325 -170 0
-325 -34 0
-325 -73 0
325 163 -138 170 34 73 0
321 322 323 324 325 0
-326 -83 0
-326 -34 0
-326 -88 0
-326 173 0
-326 -12 0
326 83 34 88 -173 12 0
-327 -119 0
-327 16 0
-327 68 0
-327 -97 0
-327 -139 0
327 119 -16 -68 97 139 0
-328 -77 0
-328 -23 0
-328 21 0
-328 76 0
-328 124 0
328 77 23 -21 -76 -124 0
-329 77 0
-329 102 0
-329 73 0
-329 -58 0
-329 -106 0
329 -77 -102 -73 58 106 0
-330 68 0
-330 91 0
-330 -139 0
-330 6 0
-330 -102 0
330 -68 -91 139 -6 102 0
326 327 328 329 330 0
-331 -44 0
-331 160 0
-331 -173 0
-331 -28 0
-331 -85 0
331 44 -160 173 28 85 0
-332 -167 0
-332 143 0
-332 133 0
-332 36 0
-332 63 0
332 167 -143 -133 -36 -63 0
-333 77 0
-333 -113 0
-333 -19 0
-333 -154 0
-333 -90 0
333 -77 113 19 154 90 0
-334 -166 0
-334 178 0
-334 -47 0
-334 85 0
-334 174 0
334 166 -178 47 -85 -174 0
-335 -131 0
-335 -99 0
-335 -58 0
-335 -172 0
-335 181 0
335 131 99 58 172 -181 0
331 332 333 334 335 0
-336 133 0
-336 139 0
-336 -32 0
-336 -103 0
-336 -165 0
336 -133 -139 32 103 165 0
-337 105 0
-337 -72 0
-337 -71 0
-337 -91 0
-337 -113 0
337 -105 72 71 91 113 0
-338 -103 0
-338 -173 0
-338 75 0
-338 -101 0
-338 -165 0
338 103 173 -75 101 165 0
-339 85 0
-339 -148 0
-339 79 0
-339 141 0
-339 -187 0
339 -85 148 -79 -141 187 0
-340 74 0
-340 -182 0
-340 77 0
-340 11 0
-340 3 0
340 -74 182 -77 -11 -3 0
336 337 338 339 340 0
-341 166 0
-341 86 0
-341 -179 0
-341 -87 0
-341 -41 0
341 -166 -86 179 87 41 0
-342 -164 0
-342 -119 0
-342 83 0
-342 103 0
-342 -49 0
342 164 119 -83 -103 49 0
-343 -167 0
-343 -102 0
-343 155 0
-343 50 0
-343 148 0
343 167 102 -155 -50 -148 0
-344 162 0
-344 62 0
-344 -118 0
-344 -90 0
-344 7 0
344 -162 -62 118 90 -7 0
-345 152 0
-345 -73 0
-345 -124 0
-345 5 0
-345 98 0
345 -152 73 124 -5 -98 0
341 342 343 344 345 0
-346 -153 0
-346 57 0
-346 91 0
-346 -182 0
-346 130 0
346 153 -57 -91 182 -130 0
-347 -152 0
-347 -5 0
-347 96 0
-347 -35 0
-347 -167 0
347 152 5 -96 35 167 0
-348 -106 0
-348 32 0
-348 183 0
-348 25 0
-348 -97 0
348 106 -32 -183 -25 97 0
-349 107 0
-349 -126 0
-349 -162 0
-349 81 0
-349 72 0
349 -107 126 162 -81 -72 0
-350 157 0
-350 42 0
-350 19 0
-350 -68 0
-350 13 0
350 -157 -42 -19 68 -13 0
346 347 348 349 350 0
-351 -95 0
-351 169 0
-351 44 0
-351 -100 0
-351 47 0
351 95 -169 -44 100 -47 0
-352 -127 0
-352 78 0
-352 61 0
-352 96 0
-352 -140 0
352 127 -78 -61 -96 140 0
-353 -29 0
-353 129 0
-353 140 0
-353 -158 0
-353 -44 0
353 29 -129 -140 158 44 0
-354 112 0
-354 138 0
-354 50 0
-354 -38 0
-354 -93 0
354 -112 -138 -50 38 93 0
-355 -155 0
-355 123 0
-355 -119 0
-355 -104 0
-355 -175 0
355 155 -123 119 104 175 0
351 352 353 354 355 0
-356 -63 0
-356 98 0
-356 129 0
-356 47 0
-356 153 0
356 63 -98 -129 -47 -153 0
-357 52 0
-357 -165 0
-357 18 0
-357 127 0
-357 -63 0
357 -52 165 -18 -127 63 0
-358 159 0
-358 -37 0
-358 148 0
-358 164 0
-358 151 0
358 -159 37 -148 -164 -151 0
-359 28 0
-359 65 0
-359 162 0
-359 -64 0
-359 -125 0
359 -28 -65 -162 64 125 0
-360 -32 0
-360 40 0
-360 -101 0
-360 182 0
-360 -117 0
360 32 -40 101 -182 117 0
356 357 358 359 360 0
-361 97 0
-361 -48 0
-361 -141 0
-361 -74 0
-361 181 0
361 -97 48 141 74 -181 0
-362 -3 0
-362 -153 0
-362 112 0
-362 127 0
-362 -6 0
362 3 153 -112 -127 6 0
-363 -135 0
-363 -123 0
-363 -48 0
-363 -69 0
-363 31 0
363 135 123 48 69 -31 0
-364 -164 0
-364 -157 0
-364 118 0
-364 -132 0
-364 -47 0
364 164 157 -118 132 47 0
-365 30 0
-365 184 0
-365 118 0
-365 142 0
-365 -44 0
365 -30 -184 -118 -142 44 0
361 362 363 364 365 0
-366 -104 0
-366 58 0
-366 -72 0
-366 153 0
-366 6 0
366 104 -58 72 -153 -6 0
-367 22 0
-367 -11 0
-367 -13 0
-367 -103 0
-367 114 0
367 -22 11 13 103 -114 0
-368 124 0
-368 82 0
-368 -31 0
-368 -183 0
-368 17 0
368 -124 -82 31 183 -17 0
-369 -17 0
-369 28 0
-369 -9 0
-369 -109 0
-369 34 0
369 17 -28 9 109 -34 0
-370 -123 0
-370 -146 0
-370 -1 0
-370 -70 0
-370 -5 0
370 123 146 1 70 5 0
366 367 368 369 370 0
-371 -187 0
-371 58 0
-371 -93 0
-371 162 0
-371 118 0
371 187 -58 93 -162 -118 0
-372 47 0
-372 -102 0
-372 155 0
-372 111 0
-372 118 0
372 -47 102 -155 -111 -118 0
-373 28 0
-373 125 0
-373 179 0
-373 -44 0
-373 177 0
373 -28 -125 -179 44 -177 0
-374 161 0
-374 91 0
-374 154 0
-374 31 0
-374 -122 0
374 -161 -91 -154 -31 122 0
-375 128 0
-375 -118 0
-375 55 0
-375 80 0
-375 -47 0
375 -128 118 -55 -80 47 0
371 372 373 374 375 0
-376 75 0
-376 154 0
-376 143 0
-376 56 0
-376 -77 0
376 -75 -154 -143 -56 77 0
-377 -156 0
-377 81 0
-377 -124 0
-377 179 0
-377 -114 0
377 156 -81 124 -179 114 0
-378 104 0
-378 -183 0
-378 155 0
-378 -94 0
-378 17 0
378 -104 183 -155 94 -17 0
-379 31 0
-379 155 0
-379 82 0
-379 -40 0
-379 -46 0
379 -31 -155 -82 40 46 0
-380 26 0
-380 -13 0
-380 -116 0
-380 -150 0
-380 43 0
380 -26 13 116 150 -43 0
376 377 378 379 380 0
-381 47 0
-381 -183 0
-381 -53 0
-381 78 0
-381 -99 0
381 -47 183 53 -78 99 0
-382 -2 0
-382 -25 0
-382 52 0
-382 -183 0
-382 -130 0
382 2 25 -52 183 130 0
-383 -184 0
-383 82 0
-383 67 0
-383 -13 0
-383 -31 0
383 184 -82 -67 13 31 0
-384 134 0
-384 111 0
-384 -62 0
-384 101 0
-384 21 0
384 -134 -111 62 -101 -21 0
-385 -90 0
-385 -118 0
-385 142 0
-385 -28 0
-385 -48 0
385 90 118 -142 28 48 0
381 382 383 384 385 0
-386 80 0
-386 -4 0
-386 -103 0
-386 109 0
-386 -31 0
386 -80 4 103 -109 31 0
-387 25 0
-387 42 0
-387 52 0
-387 43 0
-387 -143 0
387 -25 -42 -52 -43 143 0
-388 147 0
-388 -37 0
-388 9 0
-388 -133 0
-388 164 0
388 -147 37 -9 133 -164 0
-389 -151 0
-389 -2 0
-389 108 0
-389 118 0
-389 -73 0
389 151 2 -108 -118 73 0
-390 5 0
-390 20 0
-390 -149 0
-390 129 0
-390 63 0
390 -5 -20 149 -129 -63 0
386 387 388 389 390 0
-391 170 0
-391 -17 0
-391 -169 0
-391 70 0
-391 158 0
391 -170 17 169 -70 -158 0
-392 159 0
-392 -175 0
-392 122 0
-392 -117 0
-392 10 0
392 -159 175 -122 117 -10 0
-393 76 0
-393 -124 0
-393 189 0
-393 -44 0
-393 -53 0
393 -76 124 -189 44 53 0
-394 -61 0
-394 -1 0
-394 -35 0
-394 100 0
-394 124 0
394 61 1 35 -100 -124 0
-395 -12 0
-395 17 0
-395 -123 0
-395 -76 0
-395 -168 0
395 12 -17 123 76 168 0
391 392 393 394 395 0
-396 -22 0
-396 -82 0
-396 28 0
-396 -97 0
-396 43 0
396 22 82 -28 97 -43 0
-397 75 0
-397 -110 0
-397 118 0
-397 -130 0
-397 65 0
397 -75 110 -118 130 -65 0
-398 -73 0
-398 156 0
-398 36 0
-398 -67 0
-398 -118 0
398 73 -156 -36 67 118 0
-399 -59 0
-399 114 0
-399 -43 0
-399 117 0
-399 113 0
399 59 -114 43 -117 -113 0
-400 159 0
-400 -145 0
-400 -154 0
-400 161 0
-400 -113 0
400 -159 145 154 -161 113 0
396 397 398 399 400 0
-401 123 0
-401 -29 0
-401 -105 0
-401 -106 0
-401 -33 0
401 -123 29 105 106 33 0
-402 -102 0
-402 -163 0
-402 -6 0
-402 -10 0
-402 151 0
402 102 163 6 10 -151 0
-403 125 0
-403 -76 0
-403 -161 0
-403 -75 0
-403 29 0
403 -125 76 161 75 -29 0
-404 -45 0
-404 -14 0
-404 50 0
-404 -109 0
-404 188 0
404 45 14 -50 109 -188 0
-405 46 0
-405 -154 0
-405 -64 0
-405 -125 0
-405 79 0
405 -46 154 64 125 -79 0
401 402 403 404 405 0
-406 -96 0
-406 -103 0
-406 -75 0
-406 132 0
-406 165 0
406 96 103 75 -132 -165 0
-407 -67 0
-407 48 0
-407 -20 0
-407 -184 0
-407 136 0
407 67 -48 20 184 -136 0
-408 -127 0
-408 154 0
-408 144 0
-408 179 0
-408 -76 0
408 127 -154 -144 -179 76 0
-409 183 0
-409 -138 0
-409 153 0
-409 46 0
-409 115 0
409 -183 138 -153 -46 -115 0
-410 94 0
-410 84 0
-410 89 0
-410 87 0
-410 134 0
410 -94 -84 -89 -87 -134 0
406 407 408 409 410 0
-411 -27 0
-411 -84 0
-411 118 0
-411 -76 0
-411 -51 0
411 27 84 -118 76 51 0
-412 -18 0
-412 138 0
-412 -75 0
-412 -64 0
-412 154 0
412 18 -138 75 64 -154 0
-413 -56 0
-413 4 0
-413 88 0
-413 161 0
-413 -165 0
413 56 -4 -88 -161 165 0
-414 -96 0
-414 -31 0
-414 56 0
-414 16 0
-414 -136 0
414 96 31 -56 -16 136 0
-415 110 0
-415 12 0
-415 -60 0
-415 -163 0
-415 -33 0
415 -110 -12 60 163 33 0
411 412 413 414 415 0
-416 -159 0
-416 -55 0
-416 -99 0
-416 89 0
-416 59 0
416 159 55 99 -89 -59 0
-417 -10 0
-417 -69 0
-417 -15 0
-417 53 0
-417 -14 0
417 10 69 15 -53 14 0
-418 -120 0
-418 -123 0
-418 -122 0
-418 34 0
-418 11 0
418 120 123 122 -34 -11 0
-419 55 0
-419 178 0
-419 85 0
-419 -75 0
-419 132 0
419 -55 -178 -85 75 -132 0
-420 -109 0
-420 128 0
-420 -51 0
-420 -153 0
-420 -171 0
420 109 -128 51 153 171 0
416 417 418 419 420 0
-421 -55 0
-421 162 0
-421 -122 0
-421 70 0
-421 43 0
421 55 -162 122 -70 -43 0
-422 -77 0
-422 101 0
-422 121 0
-422 14 0
-422 98 0
422 77 -101 -121 -14 -98 0
-423 113 0
-423 -99 0
-423 -104 0
-423 44 0
-423 -93 0
423 -113 99 104 -44 93 0
-424 179 0
-424 -106 0
-424 -64 0
-424 51 0
-424 -45 0
424 -179 106 64 -51 45 0
-425 -77 0
-425 150 0
-425 169 0
-425 -83 0
-425 -63 0
425 77 -150 -169 83 63 0
421 422 423 424 425 0
-426 91 0
-426 7 0
-426 86 0
-426 122 0
-426 73 0
426 -91 -7 -86 -122 -73 0
-427 112 0
-427 190 0
-427 -31 0
-427 30 0
-427 160 0
427 -112 -190 31 -30 -160 0
-428 -114 0
-428 -66 0
-428 -84 0
-428 -41 0
-428 83 0
428 114 66 84 41 -83 0
-429 19 0
-429 -171 0
-429 -135 0
-429 -68 0
-429 -14 0
429 -19 171 135 68 14 0
-430 -144 0
-430 57 0
-430 149 0
-430 46 0
-430 -94 0
430 144 -57 -149 -46 94 0
426 427 428 429 430 0
